p cnf 7230 17
-883 -926 0
-883 -928 0
687 881 -923 0
690 883 -925 0
-687 -924 0
693 883 -927 0
925 926 0
923 924 0
927 928 0
-693 -928 0
-690 -926 0
-881 -924 0
696 883 930 0
921 922 0
-921 -922 0
-696 -930 0
-883 -930 0
